(set-logic QF_S)
(declare-fun var0 () String)
(declare-fun var1 () String)
(declare-fun var2 () String)
(declare-fun var3 () String)
(declare-fun var4 () String)
(declare-fun var5 () String)
(declare-fun var6 () String)
(declare-fun var7 () String)
(declare-fun var8 () String)
(declare-fun var9 () String)
(declare-fun var10 () String)
(declare-fun var11 () String)
(declare-fun var12 () String)
(declare-fun var13 () String)
(declare-fun var14 () String)
(declare-fun var15 () String)
(declare-fun var16 () String)
(declare-fun var17 () String)
(declare-fun var18 () String)
(declare-fun var19 () String)
(declare-fun var20 () String)
(declare-fun var21 () String)
(declare-fun var22 () String)
(declare-fun var23 () String)
(declare-fun var24 () String)
(declare-fun var25 () String)
(declare-fun var26 () String)
(declare-fun var27 () String)
(declare-fun var28 () String)
(declare-fun var29 () String)
(declare-fun var30 () String)
(declare-fun var31 () String)
(declare-fun var32 () String)
(declare-fun var33 () String)
(declare-fun var34 () String)
(declare-fun var35 () String)
(declare-fun var36 () String)
(declare-fun var37 () String)
(declare-fun var38 () String)
(declare-fun var39 () String)
(declare-fun var40 () String)
(declare-fun var41 () String)
(declare-fun var42 () String)
(declare-fun var43 () String)
(declare-fun var44 () String)
(declare-fun var45 () String)
(declare-fun var46 () String)
(declare-fun var47 () String)
(declare-fun var48 () String)
(declare-fun var49 () String)
(declare-fun var50 () String)
(declare-fun var51 () String)
(declare-fun var52 () String)
(declare-fun var53 () String)
(declare-fun var54 () String)
(declare-fun var55 () String)
(declare-fun var56 () String)
(declare-fun var57 () String)
(declare-fun var58 () String)
(declare-fun var59 () String)
(declare-fun var60 () String)
(assert (= var0 (Concat var1 var2)))
(assert (= var2 (Concat var3 var4)))
(assert (= var4 (Concat var5 var6)))
(assert (= var6 (Concat var7 var8)))
(assert (= var8 (Concat var9 var10)))
(assert (= var10 (Concat var11 var12)))
(assert (= var12 (Concat var13 var14)))
(assert (= var14 (Concat var15 var16)))
(assert (= var16 (Concat var17 var18)))
(assert (= var18 (Concat var19 var20)))
(assert (= var20 (Concat var21 var22)))
(assert (= var22 (Concat var23 var24)))
(assert (= var24 (Concat var25 var26)))
(assert (= var26 (Concat var27 var28)))
(assert (= var28 (Concat var29 var30)))
(assert (= var30 (Concat var31 var32)))
(assert (= var32 (Concat var33 var34)))
(assert (= var34 (Concat var35 var36)))
(assert (= var36 (Concat var37 var38)))
(assert (= var38 (Concat var39 var40)))
(assert (= var40 (Concat var41 var42)))
(assert (= var42 (Concat var43 var44)))
(assert (= var44 (Concat var45 var46)))
(assert (= var46 (Concat var47 var48)))
(assert (= var48 (Concat var49 var50)))
(assert (= var50 (Concat var51 var52)))
(assert (= var52 (Concat var53 var54)))
(assert (= var54 (Concat var55 var56)))
(assert (= var56 (Concat var57 var58)))
(assert (= var58 (Concat var59 var60)))
(assert (= var0 "solution"))
(assert (= "<" (CharAt var26 569)))
(assert (= "5" (CharAt var19 49)))
(assert (= "L" (CharAt var16 747)))
(assert (= "`" (CharAt var29 417)))
(assert (= "g" (CharAt var26 843)))
(assert (= "L" (CharAt var4 722)))
(assert (= "8" (CharAt var21 383)))
(assert (= "C" (CharAt var53 119)))
(assert (= "M" (CharAt var12 22)))
(assert (= "t" (CharAt var31 263)))
(assert (= "X" (CharAt var33 301)))
(assert (= "a" (CharAt var34 935)))
(assert (= "G" (CharAt var41 736)))
(assert (= "," (CharAt var20 717)))
(assert (= "O" (CharAt var17 932)))
(assert (= "G" (CharAt var11 876)))
(assert (= "6" (CharAt var38 206)))
(assert (= "L" (CharAt var10 10)))
(assert (= "1" (CharAt var2 957)))
(assert (= "4" (CharAt var3 132)))
(assert (= "|" (CharAt var49 314)))
(assert (= "@" (CharAt var25 149)))
(assert (= "n" (CharAt var16 158)))
(assert (= "e" (CharAt var8 60)))
(assert (= "u" (CharAt var7 154)))
(assert (= "c" (CharAt var27 759)))
(assert (= "(" (CharAt var45 503)))
(assert (= "." (CharAt var55 363)))
(assert (= "?" (CharAt var25 707)))
(assert (= "^" (CharAt var58 829)))
(assert (= "}" (CharAt var14 440)))
(assert (= "f" (CharAt var29 395)))
(assert (= "H" (CharAt var12 98)))
(assert (= "}" (CharAt var17 40)))
(assert (= "Y" (CharAt var19 772)))
(assert (= "-" (CharAt var31 752)))
(assert (= "C" (CharAt var28 904)))
(assert (= "F" (CharAt var28 119)))
(assert (= "8" (CharAt var2 944)))
(assert (= "e" (CharAt var21 412)))
(assert (= "+" (CharAt var51 157)))
(assert (= "-" (CharAt var38 95)))
(assert (= "m" (CharAt var19 897)))
(assert (= "j" (CharAt var46 924)))
(assert (= "8" (CharAt var3 624)))
(assert (= "2" (CharAt var19 960)))
(assert (= "4" (CharAt var11 918)))
(assert (= "}" (CharAt var17 531)))
(assert (= "[" (CharAt var4 59)))
(assert (= "9" (CharAt var19 739)))
(assert (= "K" (CharAt var14 442)))
(assert (= "&" (CharAt var22 713)))
(assert (= "{" (CharAt var26 297)))
(assert (= "y" (CharAt var18 20)))
(assert (= "7" (CharAt var54 639)))
(assert (= "d" (CharAt var47 612)))
(assert (= "I" (CharAt var51 231)))
(assert (= "C" (CharAt var60 697)))
(assert (= "e" (CharAt var25 481)))
(assert (= "1" (CharAt var43 446)))
(assert (= "," (CharAt var53 301)))
(assert (= "3" (CharAt var53 805)))
(assert (= "K" (CharAt var54 198)))
(assert (= "y" (CharAt var59 362)))
(assert (= "4" (CharAt var47 280)))
(assert (= "a" (CharAt var36 59)))
(assert (= "'" (CharAt var21 729)))
(assert (= "/" (CharAt var35 636)))
(assert (= "2" (CharAt var54 568)))
(assert (= "." (CharAt var25 462)))
(assert (= "s" (CharAt var30 785)))
(assert (= "_" (CharAt var1 852)))
(assert (= "a" (CharAt var55 598)))
(assert (= "J" (CharAt var14 493)))
(assert (= "z" (CharAt var28 568)))
(assert (= "[" (CharAt var38 79)))
(assert (= "[" (CharAt var25 760)))
(assert (= "a" (CharAt var47 74)))
(assert (= "Y" (CharAt var16 248)))
(assert (= "u" (CharAt var53 336)))
(assert (= "(" (CharAt var40 220)))
(assert (= "]" (CharAt var37 735)))
(assert (= "M" (CharAt var37 814)))
(assert (= "t" (CharAt var17 703)))
(assert (= "_" (CharAt var27 820)))
(assert (= "9" (CharAt var35 902)))
(assert (= "X" (CharAt var5 277)))
(assert (= "`" (CharAt var11 783)))
(assert (= "Q" (CharAt var7 711)))
(assert (= "Z" (CharAt var37 564)))
(assert (= "x" (CharAt var17 739)))
(assert (= "E" (CharAt var32 67)))
(assert (= "a" (CharAt var16 120)))
(assert (= "T" (CharAt var40 509)))
(assert (= "v" (CharAt var33 47)))
(assert (= "%" (CharAt var45 661)))
(assert (= "e" (CharAt var14 542)))
(assert (= "l" (CharAt var2 377)))
(assert (= "[" (CharAt var40 951)))
(assert (= "p" (CharAt var51 838)))
(assert (= "H" (CharAt var55 982)))
(assert (= "." (CharAt var60 246)))
(assert (= "g" (CharAt var38 451)))
(assert (= "X" (CharAt var26 143)))
(assert (= "@" (CharAt var28 88)))
(assert (= "#" (CharAt var13 465)))
(assert (= "@" (CharAt var38 808)))
(assert (= "<" (CharAt var38 277)))
(assert (= "(" (CharAt var48 263)))
(assert (= "+" (CharAt var43 638)))
(assert (= "H" (CharAt var48 102)))
(assert (= "W" (CharAt var55 710)))
(assert (= "!" (CharAt var7 300)))
(assert (= "I" (CharAt var33 473)))
(assert (= "u" (CharAt var19 95)))
(assert (= "Z" (CharAt var30 488)))
(assert (= "q" (CharAt var60 136)))
(assert (= "t" (CharAt var55 894)))
(assert (= "A" (CharAt var31 257)))
(assert (= "c" (CharAt var7 457)))
(assert (= "^" (CharAt var44 944)))
(assert (= "l" (CharAt var9 622)))
(assert (= "`" (CharAt var8 840)))
(assert (= "o" (CharAt var42 55)))
(assert (= "d" (CharAt var48 7)))
(assert (= "u" (CharAt var41 822)))
(assert (= "o" (CharAt var31 976)))
(assert (= "k" (CharAt var46 787)))
(assert (= "B" (CharAt var10 86)))
(assert (= ":" (CharAt var3 742)))
(assert (= ":" (CharAt var38 653)))
(assert (= "u" (CharAt var2 117)))
(assert (= "h" (CharAt var35 97)))
(assert (= "~" (CharAt var36 164)))
(assert (= "5" (CharAt var9 859)))
(assert (= "5" (CharAt var51 306)))
(assert (= "7" (CharAt var8 61)))
(assert (= "}" (CharAt var43 334)))
(assert (= "o" (CharAt var35 218)))
(assert (= "`" (CharAt var25 697)))
(assert (= "|" (CharAt var57 440)))
(assert (= "Q" (CharAt var38 199)))
(assert (= "?" (CharAt var14 763)))
(assert (= "l" (CharAt var3 835)))
(assert (= "4" (CharAt var28 842)))
(assert (= "m" (CharAt var5 534)))
(assert (= "c" (CharAt var44 122)))
(assert (= "k" (CharAt var23 338)))
(assert (= "x" (CharAt var16 432)))
(assert (= "5" (CharAt var47 239)))
(assert (= "U" (CharAt var44 680)))
(assert (= "v" (CharAt var49 362)))
(assert (= "W" (CharAt var28 918)))
(assert (= "R" (CharAt var11 332)))
(assert (= "*" (CharAt var28 379)))
(assert (= "F" (CharAt var6 957)))
(assert (= "C" (CharAt var49 485)))
(assert (= "," (CharAt var56 592)))
(assert (= "@" (CharAt var25 506)))
(assert (= "[" (CharAt var36 965)))
(assert (= "C" (CharAt var2 335)))
(assert (= "\\" (CharAt var55 514)))
(assert (= "?" (CharAt var60 102)))
(assert (= "x" (CharAt var57 797)))
(assert (= "V" (CharAt var45 316)))
(assert (= ":" (CharAt var57 1000)))
(assert (= "a" (CharAt var8 343)))
(assert (= "c" (CharAt var9 829)))
(assert (= "M" (CharAt var29 779)))
(assert (= "F" (CharAt var36 876)))
(assert (= ">" (CharAt var45 879)))
(assert (= "b" (CharAt var48 98)))
(assert (= "p" (CharAt var22 395)))
(assert (= "j" (CharAt var2 205)))
(assert (= "k" (CharAt var39 442)))
(assert (= "V" (CharAt var2 452)))
(assert (= "0" (CharAt var39 812)))
(assert (= ")" (CharAt var17 732)))
(assert (= "3" (CharAt var56 109)))
(assert (= "K" (CharAt var25 521)))
(assert (= "y" (CharAt var36 24)))
(assert (= "2" (CharAt var26 80)))
(assert (= "a" (CharAt var21 64)))
(assert (= "q" (CharAt var34 322)))
(assert (= "E" (CharAt var51 795)))
(assert (= "a" (CharAt var55 347)))
(assert (= "X" (CharAt var16 617)))
(assert (= "K" (CharAt var1 633)))
(assert (= "9" (CharAt var36 227)))
(assert (= ">" (CharAt var21 634)))
(assert (= "{" (CharAt var6 411)))
(assert (= "f" (CharAt var25 305)))
(assert (= "*" (CharAt var28 872)))
(assert (= "Z" (CharAt var55 268)))
(assert (= "K" (CharAt var4 745)))
(assert (= "F" (CharAt var49 965)))
(assert (= "s" (CharAt var15 56)))
(assert (= "w" (CharAt var11 788)))
(assert (= "j" (CharAt var30 1000)))
(assert (= "S" (CharAt var31 306)))
(assert (= "1" (CharAt var13 332)))
(assert (= "5" (CharAt var31 784)))
(assert (= "I" (CharAt var36 682)))
(assert (= "`" (CharAt var45 186)))
(assert (= "i" (CharAt var5 179)))
(assert (= "=" (CharAt var50 418)))
(assert (= "M" (CharAt var23 619)))
(assert (= "J" (CharAt var9 473)))
(assert (= "|" (CharAt var46 993)))
(assert (= "}" (CharAt var14 31)))
(assert (= "d" (CharAt var54 992)))
(assert (= "L" (CharAt var58 383)))
(assert (= "~" (CharAt var20 880)))
(assert (= "m" (CharAt var14 97)))
(assert (= "I" (CharAt var14 506)))
(assert (= "T" (CharAt var54 603)))
(assert (= "D" (CharAt var27 349)))
(assert (= "q" (CharAt var34 213)))
(assert (= "p" (CharAt var7 881)))
(assert (= "A" (CharAt var41 819)))
(assert (= "[" (CharAt var19 53)))
(assert (= "4" (CharAt var29 228)))
(assert (= "$" (CharAt var0 205)))
(assert (= "9" (CharAt var31 724)))
(assert (= "z" (CharAt var23 445)))
(assert (= "U" (CharAt var23 389)))
(assert (= ":" (CharAt var53 558)))
(assert (= "X" (CharAt var45 137)))
(assert (= "2" (CharAt var6 750)))
(assert (= "D" (CharAt var50 278)))
(assert (= "\"" (CharAt var57 755)))
(assert (= "W" (CharAt var38 55)))
(assert (= "6" (CharAt var59 993)))
(assert (= "0" (CharAt var10 561)))
(assert (= "p" (CharAt var59 719)))
(assert (= ">" (CharAt var59 554)))
(assert (= "q" (CharAt var31 957)))
(assert (= "$" (CharAt var47 562)))
(assert (= "Z" (CharAt var3 457)))
(assert (= "@" (CharAt var40 974)))
(assert (= "3" (CharAt var16 801)))
(assert (= "|" (CharAt var59 449)))
(assert (= "I" (CharAt var15 907)))
(assert (= "r" (CharAt var16 442)))
(assert (= "_" (CharAt var54 598)))
(assert (= ")" (CharAt var38 776)))
(assert (= "^" (CharAt var3 730)))
(assert (= "u" (CharAt var21 824)))
(assert (= "A" (CharAt var45 311)))
(assert (= "C" (CharAt var18 266)))
(assert (= "." (CharAt var60 243)))
(assert (= "`" (CharAt var8 686)))
(assert (= "K" (CharAt var18 180)))
(assert (= "E" (CharAt var3 602)))
(assert (= "5" (CharAt var21 788)))
(assert (= "o" (CharAt var18 224)))
(assert (= "\\" (CharAt var55 891)))
(assert (= "+" (CharAt var53 436)))
(assert (= "S" (CharAt var2 837)))
(assert (= "0" (CharAt var55 343)))
(assert (= "E" (CharAt var45 47)))
(assert (= "7" (CharAt var34 502)))
(assert (= "#" (CharAt var51 166)))
(assert (= "Q" (CharAt var2 562)))
(assert (= "e" (CharAt var28 430)))
(assert (= ">" (CharAt var9 51)))
(assert (= "y" (CharAt var35 25)))
(assert (= "\\" (CharAt var59 534)))
(assert (= "u" (CharAt var56 350)))
(assert (= "7" (CharAt var53 946)))
(assert (= "&" (CharAt var8 236)))
(assert (= "`" (CharAt var40 250)))
(assert (= "^" (CharAt var16 126)))
(assert (= "3" (CharAt var57 954)))
(assert (= ";" (CharAt var44 574)))
(assert (= "J" (CharAt var53 179)))
(assert (= "0" (CharAt var40 340)))
(assert (= "/" (CharAt var35 968)))
(assert (= "<" (CharAt var32 108)))
(assert (= "5" (CharAt var45 652)))
(assert (= "$" (CharAt var34 776)))
(assert (= "C" (CharAt var57 800)))
(assert (= "e" (CharAt var40 260)))
(assert (= "2" (CharAt var9 480)))
(assert (= "3" (CharAt var4 172)))
(assert (= "N" (CharAt var28 991)))
(assert (= "c" (CharAt var46 328)))
(assert (= "J" (CharAt var4 859)))
(assert (= "b" (CharAt var27 525)))
(assert (= "!" (CharAt var36 508)))
(assert (= "#" (CharAt var11 609)))
(assert (= "e" (CharAt var58 436)))
(assert (= ";" (CharAt var6 515)))
(assert (= "P" (CharAt var3 555)))
(assert (= "p" (CharAt var15 825)))
(assert (= "_" (CharAt var21 70)))
(assert (= ":" (CharAt var53 602)))
(assert (= "9" (CharAt var47 807)))
(assert (= "9" (CharAt var13 125)))
(assert (= "c" (CharAt var57 931)))
(assert (= "C" (CharAt var42 73)))
(assert (= "d" (CharAt var15 950)))
(assert (= "L" (CharAt var53 293)))
(assert (= "1" (CharAt var35 158)))
(assert (= ")" (CharAt var59 97)))
(assert (= "E" (CharAt var9 794)))
(assert (= "H" (CharAt var32 20)))
(assert (= "I" (CharAt var20 735)))
(assert (= "|" (CharAt var32 567)))
(assert (= "D" (CharAt var25 837)))
(assert (= "0" (CharAt var34 589)))
(assert (= "I" (CharAt var12 924)))
(assert (= "~" (CharAt var14 896)))
(assert (= "U" (CharAt var14 159)))
(assert (= "z" (CharAt var11 252)))
(assert (= ":" (CharAt var48 129)))
(assert (= "Z" (CharAt var40 628)))
(assert (= "Z" (CharAt var9 774)))
(assert (= "6" (CharAt var35 656)))
(assert (= "=" (CharAt var15 657)))
(assert (= "f" (CharAt var44 918)))
(assert (= "t" (CharAt var24 712)))
(assert (= "h" (CharAt var16 591)))
(assert (= "r" (CharAt var50 537)))
(assert (= "^" (CharAt var29 511)))
(assert (= "$" (CharAt var27 730)))
(assert (= "*" (CharAt var14 787)))
(assert (= "]" (CharAt var14 809)))
(assert (= "7" (CharAt var53 656)))
(assert (= "N" (CharAt var42 161)))
(assert (= "|" (CharAt var39 416)))
(assert (= "'" (CharAt var15 637)))
(assert (= ";" (CharAt var0 333)))
(assert (= "q" (CharAt var58 837)))
(assert (= "R" (CharAt var44 746)))
(assert (= "7" (CharAt var50 400)))
(assert (= "\\" (CharAt var2 713)))
(assert (= "4" (CharAt var18 290)))
(assert (= "!" (CharAt var41 645)))
(assert (= "r" (CharAt var14 111)))
(assert (= "C" (CharAt var10 196)))
(assert (= "j" (CharAt var28 713)))
(assert (= "v" (CharAt var3 508)))
(assert (= "l" (CharAt var21 693)))
(assert (= ";" (CharAt var27 708)))
(assert (= "=" (CharAt var56 335)))
(assert (= "(" (CharAt var4 385)))
(assert (= "T" (CharAt var0 258)))
(assert (= "{" (CharAt var14 642)))
(assert (= "x" (CharAt var11 595)))
(assert (= "+" (CharAt var17 223)))
(assert (= "~" (CharAt var43 509)))
(assert (= "b" (CharAt var37 414)))
(assert (= "x" (CharAt var18 64)))
(assert (= "i" (CharAt var15 874)))
(assert (= "v" (CharAt var44 940)))
(assert (= ":" (CharAt var52 153)))
(assert (= "&" (CharAt var38 519)))
(assert (= "3" (CharAt var31 644)))
(assert (= "'" (CharAt var6 371)))
(assert (= "7" (CharAt var11 335)))
(assert (= "5" (CharAt var38 537)))
(assert (= "7" (CharAt var52 255)))
(assert (= "q" (CharAt var6 866)))
(assert (= "y" (CharAt var43 873)))
(assert (= ":" (CharAt var19 51)))
(assert (= "P" (CharAt var59 749)))
(assert (= "#" (CharAt var48 322)))
(assert (= "7" (CharAt var28 938)))
(assert (= "=" (CharAt var28 475)))
(assert (= "4" (CharAt var42 992)))
(assert (= "W" (CharAt var43 149)))
(assert (= "n" (CharAt var22 641)))
(assert (= "_" (CharAt var46 638)))
(assert (= "u" (CharAt var28 426)))
(assert (= "S" (CharAt var54 232)))
(assert (= "d" (CharAt var30 221)))
(assert (= "h" (CharAt var27 95)))
(assert (= "O" (CharAt var28 228)))
(assert (= ")" (CharAt var20 365)))
(assert (= "%" (CharAt var59 185)))
(assert (= "u" (CharAt var26 366)))
(assert (= "W" (CharAt var47 527)))
(assert (= "x" (CharAt var16 510)))
(assert (= "*" (CharAt var27 455)))
(assert (= "^" (CharAt var23 920)))
(assert (= "n" (CharAt var20 325)))
(assert (= "8" (CharAt var5 356)))
(assert (= "E" (CharAt var53 517)))
(assert (= "." (CharAt var32 83)))
(assert (= ":" (CharAt var22 260)))
(assert (= "c" (CharAt var37 403)))
(assert (= "R" (CharAt var25 636)))
(assert (= "R" (CharAt var7 277)))
(assert (= "l" (CharAt var53 611)))
(assert (= "!" (CharAt var4 730)))
(assert (= "3" (CharAt var43 442)))
(assert (= "$" (CharAt var6 30)))
(assert (= "{" (CharAt var50 925)))
(assert (= "&" (CharAt var18 383)))
(assert (= "k" (CharAt var1 59)))
(assert (= "/" (CharAt var51 547)))
(assert (= "o" (CharAt var27 355)))
(assert (= "B" (CharAt var39 569)))
(assert (= "v" (CharAt var57 527)))
(assert (= "3" (CharAt var35 253)))
(assert (= "g" (CharAt var58 584)))
(assert (= "~" (CharAt var22 333)))
(assert (= "l" (CharAt var21 318)))
(assert (= "7" (CharAt var35 83)))
(assert (= "`" (CharAt var20 859)))
(assert (= "m" (CharAt var14 190)))
(assert (= "j" (CharAt var20 159)))
(assert (= "K" (CharAt var17 986)))
(assert (= "3" (CharAt var57 429)))
(assert (= "\\" (CharAt var50 586)))
(assert (= "i" (CharAt var21 636)))
(assert (= "%" (CharAt var35 223)))
(assert (= "$" (CharAt var32 217)))
(assert (= "V" (CharAt var25 172)))
(assert (= "o" (CharAt var32 758)))
(assert (= "A" (CharAt var12 12)))
(assert (= "O" (CharAt var3 873)))
(assert (= "4" (CharAt var37 114)))
(assert (= "9" (CharAt var1 487)))
(assert (= "(" (CharAt var9 632)))
(assert (= "<" (CharAt var59 981)))
(assert (= "-" (CharAt var39 641)))
(assert (= "0" (CharAt var13 1)))
(assert (= "j" (CharAt var3 820)))
(assert (= "[" (CharAt var46 40)))
(assert (= "-" (CharAt var25 260)))
(assert (= "e" (CharAt var0 778)))
(assert (= "C" (CharAt var10 790)))
(assert (= "4" (CharAt var23 26)))
(assert (= "I" (CharAt var43 554)))
(assert (= "F" (CharAt var43 783)))
(assert (= "7" (CharAt var38 721)))
(assert (= "x" (CharAt var16 208)))
(assert (= "O" (CharAt var40 62)))
(assert (= "f" (CharAt var42 816)))
(assert (= "1" (CharAt var57 246)))
(assert (= ">" (CharAt var34 605)))
(assert (= "Y" (CharAt var10 99)))
(assert (= "{" (CharAt var32 327)))
(assert (= "," (CharAt var37 689)))
(assert (= "3" (CharAt var17 819)))
(assert (= "M" (CharAt var43 798)))
(assert (= "]" (CharAt var53 242)))
(assert (= "]" (CharAt var14 875)))
(assert (= "8" (CharAt var1 552)))
(assert (= "~" (CharAt var53 938)))
(assert (= "p" (CharAt var56 1000)))
(assert (= "\"" (CharAt var23 237)))
(assert (= "(" (CharAt var10 924)))
(assert (= "'" (CharAt var42 136)))
(assert (= "A" (CharAt var1 933)))
(assert (= "o" (CharAt var59 506)))
(assert (= "y" (CharAt var23 155)))
(assert (= "(" (CharAt var38 24)))
(assert (= "N" (CharAt var48 551)))
(assert (= "I" (CharAt var32 852)))
(assert (= "=" (CharAt var11 695)))
(assert (= "J" (CharAt var49 237)))
(assert (= "B" (CharAt var45 272)))
(assert (= "{" (CharAt var25 489)))
(assert (= "{" (CharAt var45 566)))
(assert (= "|" (CharAt var3 216)))
(assert (= "E" (CharAt var28 361)))
(assert (= ")" (CharAt var50 649)))
(assert (= "k" (CharAt var0 620)))
(assert (= "#" (CharAt var51 741)))
(assert (= "M" (CharAt var35 301)))
(assert (= "'" (CharAt var53 579)))
(assert (= "M" (CharAt var43 774)))
(assert (= "z" (CharAt var41 289)))
(assert (= "." (CharAt var33 476)))
(assert (= "b" (CharAt var5 506)))
(assert (= "n" (CharAt var18 313)))
(assert (= "$" (CharAt var15 931)))
(assert (= "I" (CharAt var24 515)))
(assert (= "s" (CharAt var58 349)))
(assert (= "." (CharAt var49 114)))
(assert (= "~" (CharAt var57 484)))
(assert (= "U" (CharAt var41 293)))
(assert (= "E" (CharAt var15 66)))
(assert (= "`" (CharAt var51 736)))
(assert (= "Q" (CharAt var7 965)))
(assert (= "^" (CharAt var4 75)))
(assert (= "G" (CharAt var42 765)))
(assert (= "I" (CharAt var23 841)))
(assert (= "u" (CharAt var28 420)))
(assert (= "7" (CharAt var22 175)))
(assert (= "s" (CharAt var26 189)))
(assert (= "9" (CharAt var37 80)))
(assert (= "O" (CharAt var8 921)))
(assert (= "Y" (CharAt var13 891)))
(assert (= "X" (CharAt var6 423)))
(assert (= "2" (CharAt var42 598)))
(assert (= "'" (CharAt var9 438)))
(assert (= "|" (CharAt var39 35)))
(assert (= "=" (CharAt var11 938)))
(assert (= "." (CharAt var0 31)))
(assert (= "$" (CharAt var1 92)))
(assert (= "*" (CharAt var32 487)))
(assert (= "_" (CharAt var58 266)))
(assert (= "/" (CharAt var52 648)))
(assert (= "~" (CharAt var36 136)))
(assert (= "F" (CharAt var23 267)))
(assert (= "F" (CharAt var30 457)))
(assert (= "&" (CharAt var23 239)))
(assert (= "g" (CharAt var35 800)))
(assert (= "f" (CharAt var51 715)))
(assert (= "S" (CharAt var37 283)))
(assert (= "1" (CharAt var23 319)))
(assert (= "u" (CharAt var54 791)))
(assert (= "?" (CharAt var38 436)))
(assert (= "{" (CharAt var49 378)))
(assert (= "0" (CharAt var21 656)))
(assert (= "Y" (CharAt var19 294)))
(assert (= "]" (CharAt var26 248)))
(assert (= "y" (CharAt var43 198)))
(assert (= "g" (CharAt var22 340)))
(assert (= "8" (CharAt var59 943)))
(assert (= "7" (CharAt var53 296)))
(assert (= "A" (CharAt var48 650)))
(assert (= "p" (CharAt var57 214)))
(assert (= "\"" (CharAt var12 649)))
(assert (= "1" (CharAt var8 573)))
(assert (= "g" (CharAt var2 96)))
(assert (= "D" (CharAt var46 506)))
(assert (= "j" (CharAt var48 458)))
(assert (= "o" (CharAt var23 214)))
(assert (= "f" (CharAt var37 109)))
(assert (= "&" (CharAt var52 754)))
(assert (= "v" (CharAt var33 268)))
(assert (= "y" (CharAt var37 821)))
(assert (= "B" (CharAt var40 508)))
(assert (= "N" (CharAt var22 25)))
(assert (= "Y" (CharAt var60 300)))
(assert (= "1" (CharAt var15 916)))
(assert (= "X" (CharAt var16 104)))
(assert (= "<" (CharAt var2 286)))
(assert (= "%" (CharAt var6 696)))
(assert (= "(" (CharAt var38 264)))
(assert (= "5" (CharAt var53 732)))
(assert (= "K" (CharAt var42 213)))
(assert (= "=" (CharAt var18 427)))
(assert (= "c" (CharAt var57 348)))
(assert (= "&" (CharAt var55 860)))
(assert (= "0" (CharAt var46 651)))
(assert (= "r" (CharAt var50 150)))
(assert (= "/" (CharAt var1 348)))
(assert (= "W" (CharAt var40 978)))
(assert (= "h" (CharAt var40 875)))
(assert (= "!" (CharAt var23 132)))
(assert (= "U" (CharAt var41 371)))
(assert (= "f" (CharAt var38 12)))
(assert (= ";" (CharAt var11 563)))
(assert (= "D" (CharAt var19 434)))
(assert (= "5" (CharAt var50 819)))
(assert (= "y" (CharAt var12 670)))
(assert (= ";" (CharAt var30 738)))
(assert (= "A" (CharAt var58 778)))
(assert (= "E" (CharAt var34 773)))
(assert (= "M" (CharAt var12 793)))
(assert (= "-" (CharAt var36 432)))
(assert (= "r" (CharAt var1 465)))
(assert (= "d" (CharAt var18 630)))
(assert (= "c" (CharAt var41 144)))
(assert (= "6" (CharAt var20 64)))
(assert (= "[" (CharAt var2 754)))
(assert (= "j" (CharAt var19 491)))
(assert (= "@" (CharAt var25 852)))
(assert (= "V" (CharAt var46 595)))
(assert (= "O" (CharAt var25 254)))
(assert (= "u" (CharAt var7 883)))
(assert (= "l" (CharAt var33 379)))
(assert (= "D" (CharAt var35 883)))
(assert (= "`" (CharAt var34 9)))
(assert (= "j" (CharAt var45 269)))
(assert (= "P" (CharAt var24 981)))
(assert (= "Z" (CharAt var47 584)))
(assert (= "\\" (CharAt var55 847)))
(assert (= "%" (CharAt var38 629)))
(assert (= "_" (CharAt var57 315)))
(assert (= "," (CharAt var36 797)))
(assert (= "D" (CharAt var45 749)))
(assert (= "j" (CharAt var4 206)))
(assert (= ">" (CharAt var6 322)))
(assert (= "[" (CharAt var46 576)))
(assert (= "C" (CharAt var40 808)))
(assert (= "&" (CharAt var43 987)))
(assert (= "m" (CharAt var22 68)))
(assert (= "$" (CharAt var59 781)))
(assert (= "9" (CharAt var57 488)))
(assert (= "&" (CharAt var0 47)))
(assert (= "g" (CharAt var18 142)))
(assert (= "*" (CharAt var35 767)))
(assert (= "V" (CharAt var6 745)))
(assert (= "<" (CharAt var1 27)))
(assert (= "]" (CharAt var54 952)))
(assert (= "k" (CharAt var24 282)))
(assert (= "m" (CharAt var48 638)))
(assert (= "u" (CharAt var14 779)))
(assert (= "U" (CharAt var25 72)))
(assert (= "3" (CharAt var4 982)))
(assert (= "j" (CharAt var46 586)))
(assert (= "2" (CharAt var40 878)))
(assert (= "8" (CharAt var36 799)))
(assert (= "z" (CharAt var4 171)))
(assert (= "L" (CharAt var58 212)))
(assert (= "G" (CharAt var60 340)))
(assert (= "P" (CharAt var0 364)))
(assert (= "H" (CharAt var9 573)))
(assert (= "G" (CharAt var24 694)))
(assert (= "r" (CharAt var16 719)))
(assert (= "Q" (CharAt var25 318)))
(assert (= "v" (CharAt var7 935)))
(assert (= "|" (CharAt var42 960)))
(assert (= "@" (CharAt var20 879)))
(assert (= "y" (CharAt var6 864)))
(assert (= "6" (CharAt var17 996)))
(assert (= "F" (CharAt var23 926)))
(assert (= "L" (CharAt var51 706)))
(assert (= "C" (CharAt var18 386)))
(assert (= "I" (CharAt var24 384)))
(assert (= "Z" (CharAt var2 854)))
(assert (= "c" (CharAt var38 563)))
(assert (= ">" (CharAt var27 422)))
(assert (= "o" (CharAt var11 745)))
(assert (= "i" (CharAt var31 214)))
(assert (= "o" (CharAt var11 82)))
(assert (= "\"" (CharAt var57 414)))
(assert (= "h" (CharAt var0 468)))
(assert (= "!" (CharAt var45 981)))
(assert (= "K" (CharAt var1 467)))
(assert (= "I" (CharAt var4 867)))
(assert (= "3" (CharAt var22 691)))
(assert (= "I" (CharAt var47 308)))
(assert (= "&" (CharAt var57 722)))
(assert (= "N" (CharAt var12 628)))
(assert (= "/" (CharAt var45 896)))
(assert (= "m" (CharAt var24 558)))
(assert (= "v" (CharAt var5 393)))
(assert (= "]" (CharAt var16 504)))
(assert (= "4" (CharAt var55 228)))
(assert (= ">" (CharAt var21 409)))
(assert (= "H" (CharAt var0 114)))
(assert (= "j" (CharAt var58 2)))
(assert (= "X" (CharAt var51 694)))
(assert (= "T" (CharAt var13 714)))
(assert (= "8" (CharAt var53 795)))
(assert (= "]" (CharAt var25 56)))
(assert (= "w" (CharAt var30 233)))
(assert (= "M" (CharAt var25 549)))
(assert (= "?" (CharAt var49 717)))
(assert (= "3" (CharAt var35 370)))
(assert (= "A" (CharAt var17 878)))
(assert (= "a" (CharAt var16 42)))
(assert (= "G" (CharAt var6 753)))
(assert (= "t" (CharAt var59 580)))
(assert (= "P" (CharAt var40 442)))
(assert (= "(" (CharAt var7 942)))
(assert (= "f" (CharAt var34 85)))
(assert (= "u" (CharAt var55 635)))
(assert (= "'" (CharAt var48 88)))
(assert (= "3" (CharAt var40 461)))
(assert (= "%" (CharAt var49 938)))
(assert (= "8" (CharAt var18 416)))
(assert (= "y" (CharAt var1 676)))
(assert (= "z" (CharAt var23 721)))
(assert (= "$" (CharAt var1 202)))
(assert (= "\\" (CharAt var12 292)))
(assert (= "l" (CharAt var60 382)))
(assert (= "e" (CharAt var11 159)))
(assert (= "+" (CharAt var39 670)))
(assert (= "1" (CharAt var30 242)))
(assert (= "Q" (CharAt var34 563)))
(assert (= "*" (CharAt var39 25)))
(assert (= "'" (CharAt var59 6)))
(assert (= "+" (CharAt var53 49)))
(assert (= "7" (CharAt var53 194)))
(assert (= "m" (CharAt var16 778)))
(assert (= "a" (CharAt var21 479)))
(assert (= "b" (CharAt var35 139)))
(assert (= "7" (CharAt var16 486)))
(assert (= "j" (CharAt var42 438)))
(assert (= "," (CharAt var51 832)))
(assert (= "q" (CharAt var24 702)))
(assert (= "B" (CharAt var32 60)))
(assert (= "S" (CharAt var5 532)))
(assert (= "+" (CharAt var27 277)))
(assert (= "h" (CharAt var11 634)))
(assert (= "q" (CharAt var2 15)))
(assert (= "," (CharAt var0 994)))
(assert (= "4" (CharAt var9 485)))
(assert (= "I" (CharAt var56 333)))
(assert (= "I" (CharAt var1 854)))
(assert (= "N" (CharAt var20 890)))
(assert (= "h" (CharAt var38 662)))
(assert (= "d" (CharAt var48 230)))
(assert (= "u" (CharAt var48 548)))
(assert (= "k" (CharAt var13 564)))
(assert (= "Z" (CharAt var52 163)))
(assert (= "X" (CharAt var34 801)))
(assert (= "o" (CharAt var46 469)))
(assert (= "O" (CharAt var0 252)))
(assert (= "_" (CharAt var21 400)))
(assert (= "{" (CharAt var43 156)))
(assert (= "u" (CharAt var32 37)))
(assert (= "T" (CharAt var7 240)))
(assert (= "R" (CharAt var27 217)))
(assert (= "*" (CharAt var53 487)))
(assert (= ":" (CharAt var19 7)))
(assert (= "." (CharAt var34 515)))
(assert (= "_" (CharAt var25 289)))
(assert (= "R" (CharAt var55 930)))
(assert (= "r" (CharAt var39 331)))
(assert (= "J" (CharAt var44 784)))
(assert (= "O" (CharAt var45 686)))
(assert (= "7" (CharAt var23 438)))
(assert (= "B" (CharAt var5 280)))
(assert (= "." (CharAt var0 454)))
(assert (= "z" (CharAt var60 582)))
(assert (= ">" (CharAt var60 592)))
(assert (= "\\" (CharAt var31 693)))
(assert (= "3" (CharAt var13 716)))
(assert (= "&" (CharAt var30 285)))
(assert (= "8" (CharAt var2 36)))
(assert (= "[" (CharAt var31 410)))
(assert (= "C" (CharAt var9 731)))
(assert (= "l" (CharAt var52 882)))
(assert (= "*" (CharAt var33 819)))
(assert (= "0" (CharAt var12 35)))
(assert (= "b" (CharAt var22 159)))
(assert (= "Q" (CharAt var36 953)))
(assert (= "W" (CharAt var0 647)))
(assert (= "\\" (CharAt var47 671)))
(assert (= "4" (CharAt var28 753)))
(assert (= "S" (CharAt var6 421)))
(assert (= "w" (CharAt var35 177)))
(assert (= "W" (CharAt var27 297)))
(assert (= "I" (CharAt var39 26)))
(assert (= "E" (CharAt var60 286)))
(assert (= ":" (CharAt var17 92)))
(assert (= "o" (CharAt var43 684)))
(assert (= "~" (CharAt var38 490)))
(assert (= "W" (CharAt var22 154)))
(assert (= "_" (CharAt var35 959)))
(assert (= "R" (CharAt var37 595)))
(assert (= "y" (CharAt var53 452)))
(assert (= "*" (CharAt var48 303)))
(assert (= "4" (CharAt var41 827)))
(assert (= "y" (CharAt var28 687)))
(assert (= "7" (CharAt var60 401)))
(assert (= "y" (CharAt var40 564)))
(assert (= "U" (CharAt var2 487)))
(assert (= "J" (CharAt var16 547)))
(assert (= "T" (CharAt var44 468)))
(assert (= "x" (CharAt var21 234)))
(assert (= "N" (CharAt var60 356)))
(assert (= "G" (CharAt var17 814)))
(assert (= "%" (CharAt var32 355)))
(assert (= "m" (CharAt var46 26)))
(assert (= "Z" (CharAt var21 770)))
(assert (= "{" (CharAt var54 877)))
(assert (= "$" (CharAt var0 957)))
(assert (= "`" (CharAt var12 985)))
(assert (= "6" (CharAt var34 966)))
(assert (= "@" (CharAt var19 944)))
(assert (= "g" (CharAt var10 437)))
(assert (= "j" (CharAt var15 253)))
(assert (= "D" (CharAt var35 332)))
(assert (= "b" (CharAt var19 662)))
(assert (= "s" (CharAt var33 99)))
(assert (= "x" (CharAt var11 120)))
(assert (= "P" (CharAt var35 744)))
(assert (= "K" (CharAt var6 240)))
(assert (= "P" (CharAt var29 52)))
(assert (= "+" (CharAt var52 20)))
(assert (= "/" (CharAt var4 929)))
(assert (= "E" (CharAt var47 320)))
(assert (= "O" (CharAt var46 244)))
(assert (= "N" (CharAt var20 343)))
(assert (= "o" (CharAt var25 496)))
(assert (= "}" (CharAt var59 204)))
(assert (= "$" (CharAt var21 949)))
(assert (= "'" (CharAt var33 878)))
(assert (= "!" (CharAt var44 98)))
(assert (= ">" (CharAt var19 934)))
(assert (= "x" (CharAt var16 739)))
(assert (= ")" (CharAt var9 406)))
(assert (= "!" (CharAt var4 267)))
(assert (= "j" (CharAt var21 18)))
(assert (= "9" (CharAt var40 920)))
(assert (= "p" (CharAt var16 511)))
(assert (= "/" (CharAt var4 949)))
(assert (= "U" (CharAt var54 602)))
(assert (= "S" (CharAt var39 67)))
(assert (= "m" (CharAt var24 165)))
(assert (= "(" (CharAt var38 106)))
(assert (= "n" (CharAt var57 343)))
(assert (= "Q" (CharAt var46 201)))
(assert (= "%" (CharAt var46 12)))
(assert (= "E" (CharAt var13 655)))
(assert (= "&" (CharAt var12 507)))
(assert (= "F" (CharAt var28 494)))
(assert (= "\\" (CharAt var51 609)))
(assert (= "F" (CharAt var14 519)))
(assert (= "e" (CharAt var16 419)))
(assert (= "j" (CharAt var57 602)))
(assert (= "." (CharAt var22 466)))
(assert (= ";" (CharAt var17 121)))
(assert (= "=" (CharAt var8 838)))
(assert (= "U" (CharAt var47 810)))
(assert (= "S" (CharAt var1 82)))
(assert (= "'" (CharAt var49 89)))
(assert (= "+" (CharAt var51 173)))
(assert (= "K" (CharAt var42 516)))
(assert (= "=" (CharAt var48 85)))
(assert (= "H" (CharAt var27 389)))
(assert (= "h" (CharAt var12 585)))
(assert (= "M" (CharAt var53 497)))
(assert (= "\\" (CharAt var57 746)))
(assert (= "2" (CharAt var14 104)))
(assert (= "." (CharAt var40 215)))
(assert (= "+" (CharAt var53 740)))
(assert (= "<" (CharAt var27 454)))
(assert (= "P" (CharAt var51 225)))
(assert (= "N" (CharAt var8 409)))
(assert (= "a" (CharAt var31 794)))
(assert (= "c" (CharAt var57 787)))
(assert (= "A" (CharAt var59 746)))
(assert (= "^" (CharAt var4 708)))
(assert (= "p" (CharAt var54 664)))
(assert (= "-" (CharAt var8 422)))
(assert (= "?" (CharAt var36 134)))
(assert (= "H" (CharAt var59 634)))
(assert (= "2" (CharAt var6 58)))
(assert (= "U" (CharAt var38 447)))
(assert (= "e" (CharAt var13 568)))
(assert (= "w" (CharAt var42 569)))
(assert (= "'" (CharAt var21 192)))
(assert (= "x" (CharAt var43 758)))
(assert (= "W" (CharAt var5 287)))
(assert (= "W" (CharAt var13 724)))
(assert (= "X" (CharAt var20 406)))
(assert (= "(" (CharAt var29 753)))
(assert (= "#" (CharAt var34 530)))
(assert (= "=" (CharAt var55 487)))
(assert (= "j" (CharAt var13 991)))
(assert (= "L" (CharAt var32 865)))
(assert (= "0" (CharAt var45 281)))
(assert (= "T" (CharAt var55 703)))
(assert (= "]" (CharAt var12 943)))
(assert (= "R" (CharAt var53 894)))
(assert (= "d" (CharAt var20 457)))
(assert (= "v" (CharAt var50 989)))
(assert (= "s" (CharAt var8 854)))
(assert (= ":" (CharAt var9 234)))
(assert (= "X" (CharAt var34 165)))
(assert (= "#" (CharAt var32 813)))
(assert (= "w" (CharAt var22 251)))
(assert (= "p" (CharAt var8 203)))
(assert (= "Y" (CharAt var1 243)))
(assert (= "W" (CharAt var1 935)))
(assert (= "`" (CharAt var30 895)))
(assert (= "l" (CharAt var43 581)))
(assert (= "}" (CharAt var53 117)))
(assert (= "Z" (CharAt var32 447)))
(assert (= "j" (CharAt var45 599)))
(assert (= "V" (CharAt var31 212)))
(assert (= "&" (CharAt var15 185)))
(assert (= "h" (CharAt var5 363)))
(assert (= "u" (CharAt var43 931)))
(assert (= "E" (CharAt var59 268)))
(assert (= "/" (CharAt var1 953)))
(assert (= "0" (CharAt var55 809)))
(assert (= "C" (CharAt var46 828)))
(assert (= "m" (CharAt var49 996)))
(assert (= "e" (CharAt var20 27)))
(assert (= "'" (CharAt var2 126)))
(assert (= "4" (CharAt var39 687)))
(assert (= "B" (CharAt var28 62)))
(assert (= "h" (CharAt var45 653)))
(assert (= "0" (CharAt var3 1000)))
(assert (= "7" (CharAt var57 165)))
(assert (= "1" (CharAt var36 110)))
(assert (= "{" (CharAt var24 525)))
(assert (= "w" (CharAt var26 239)))
(assert (= "G" (CharAt var16 494)))
(assert (= "/" (CharAt var10 6)))
(assert (= "B" (CharAt var22 618)))
(assert (= "b" (CharAt var7 215)))
(assert (= "9" (CharAt var58 783)))
(assert (= "J" (CharAt var60 521)))
(assert (= "l" (CharAt var35 1)))
(assert (= "A" (CharAt var21 227)))
(assert (= "b" (CharAt var20 503)))
(assert (= "7" (CharAt var38 105)))
(assert (= "Y" (CharAt var13 218)))
(assert (= "!" (CharAt var42 53)))
(assert (= "h" (CharAt var19 443)))
(assert (= "," (CharAt var31 39)))
(assert (= ";" (CharAt var9 24)))
(assert (= "$" (CharAt var38 590)))
(assert (= "(" (CharAt var33 424)))
(assert (= "$" (CharAt var21 311)))
(assert (= "5" (CharAt var42 105)))
(assert (= "'" (CharAt var5 187)))
(assert (= "H" (CharAt var53 966)))
(assert (= "_" (CharAt var28 620)))
(assert (= "q" (CharAt var49 641)))
(assert (= "n" (CharAt var51 340)))
(assert (= "l" (CharAt var23 571)))
(assert (= "E" (CharAt var56 646)))
(assert (= "o" (CharAt var44 485)))
(assert (= "K" (CharAt var25 294)))
(assert (= "y" (CharAt var14 37)))
(assert (= "%" (CharAt var19 850)))
(check-sat)
(get-model)